certificates/rado_a14_c256_N41.drat
18 -38 -40 0
-18 -39 -41 0
18 -40 0
d 18 -38 -40 0
-20 -40 -41 0
-40 -41 0
d -20 -40 -41 0
20 -41 0
-41 0
19 39 -20 0
-19 -20 0
-20 0
17 0
-35 0
11 0
-29 0
19 0
5 0
-9 0
-37 0
-1 0
-7 0
-27 0
-21 0
-23 0
-15 0
33 0
18 0
13 0
25 0
31 0
3 0
39 0
-16 0
0
